p td 85 130
1 2
1 26
1 14
2 26
2 14
3 44
3 19
3 4
4 19
4 44
5 42
5 77
5 6
6 42
6 77
7 8
7 80
7 64
8 64
8 80
9 72
9 73
9 10
10 72
10 73
11 56
11 12
11 13
12 56
12 13
13 56
14 26
15 16
15 65
15 67
16 65
16 67
17 18
17 59
17 71
18 59
18 71
19 44
20 60
20 21
20 61
21 60
21 61
22 75
22 76
22 23
23 75
23 76
24 25
24 50
24 78
25 50
25 78
27 41
27 83
27 28
27 55
28 41
28 83
28 55
29 68
29 69
29 30
30 68
30 69
31 32
31 51
31 43
32 43
32 51
33 34
33 52
33 53
34 52
34 53
35 81
35 36
35 45
36 81
36 45
37 70
37 38
37 79
38 70
38 79
39 40
39 46
39 47
40 47
40 46
41 83
41 55
42 77
43 51
45 81
46 47
48 49
48 66
48 54
49 66
49 54
50 78
52 53
54 66
55 83
57 58
57 82
57 74
58 74
58 82
59 71
60 61
62 84
62 85
62 63
63 84
63 85
64 80
65 67
68 69
70 79
72 73
74 82
75 76
84 85
